0 507 23
1 286 635
2 302 407
3 69 104
4 172 206
5 40 811
6 54 362
7 2 42
8 56 4
9 301 28
10 573 9
11 20 6
12 600 208
13 41 482
14 301 69
15 206 286
16 11 0
17 239 21
18 62 297
19 557 700
20 438 186
21 168 721
22 88 586
23 222 592
24 255 372
25 367 515
26 50 176
27 10 151
28 336 47
29 53 475
30 170 68
31 91 9
32 39 131
33 438 7
34 615 617
35 308 116
36 381 35
37 141 419
38 667 337
39 56 228
40 501 26
41 201 191
42 25 503
43 374 432
44 264 454
45 95 818
46 22 6
47 575 118
48 126 645
49 69 151
50 104 252
51 85 264
52 383 65
53 127 529
54 945 38
55 260 347